files/upTests/_enums_in_types/set_enum_tuple2/0002.eprime
language ESSENCE' 1.0

find valid_SetExplicitVarSizeWithMarker_tuple1: int(0..2)
find valid_SetExplicitVarSizeWithMarker_tuple2_tuple1:
        matrix indexed by [int(1..2)] of int(1..2)
find valid_SetExplicitVarSizeWithMarker_tuple2_tuple2:
        matrix indexed by [int(1..2)] of int(1..1)
such that
    valid_SetExplicitVarSizeWithMarker_tuple1 >= 1,
    forAll v__0 : int(1..2)
        . v__0 + 1 <= valid_SetExplicitVarSizeWithMarker_tuple1
          ->
          valid_SetExplicitVarSizeWithMarker_tuple2_tuple1[v__0]
          <
          valid_SetExplicitVarSizeWithMarker_tuple2_tuple1[v__0 + 1]
          \/
          valid_SetExplicitVarSizeWithMarker_tuple2_tuple1[v__0]
          =
          valid_SetExplicitVarSizeWithMarker_tuple2_tuple1[v__0 + 1]
          /\
          valid_SetExplicitVarSizeWithMarker_tuple2_tuple2[v__0]
          <
          valid_SetExplicitVarSizeWithMarker_tuple2_tuple2[v__0 + 1]
