files/upTests/_enums_in_types/set_enum_tuple2/0002.eprime.solution
language ESSENCE' 1.0
$ minion Nodes: 4
$ minion TotalTime: 0.000401
$ Savile Row TotalTime: 0.149
letting valid_SetExplicitVarSizeWithMarker_tuple1 be 1
letting valid_SetExplicitVarSizeWithMarker_tuple2_tuple2 be [1, 1;int(1..2)]
letting valid_SetExplicitVarSizeWithMarker_tuple2_tuple1 be [1, 1;int(1..2)]
